65026
1 0 0 0 0 0 1 0 0 0 1 1 0 0 1 0 0 1 0 1 1 0 0 0 1 0 0 1 1 0 
10 14 0 24 0 20 27 19 11 6 6 19 10 28 27 27 10 24 14 0 24 14 27 27 19 11 24 24 0 11 11 10 19 24 6 27 27 19 20 14 11 10 6 10 17 19 24 20 6 20 10 20 27 20 11 27 28 11 10 20 6 0 24 20 28 14 28 14 0 20 14 17 0 10 19 0 20 20 6 20 10 14 19 6 19 20 0 28 11 24 14 19 11 19 0 27 11 6 14 20 28 11 27 19 17 27 17 28 19 24 14 11 27 10 19 27 6 0 27 28 19 27 11 11 17 10 20 6 10 17 11 17 6 0 14 27 10 17 27 10 0 14 6 11 20 17 28 17 11 14 20 11 17 24 24 11 24 17 10 10 24 28 27 24 10 0 14 17 20 0 10 0 10 14 19 24 24 19 11 14 20 17 27 24 11 11 11 20 10 19 14 0 11 11 0 27 14 10 27 11 
